PARAMETER_FILE = even/even_uncomplete_graph_new/seg/par/random149.par
PROBLEM_FILE = even/even_uncomplete_graph_new/seg/mat/random149.tsp
Successes/Runs = 0/10
Cost.min = 929, Cost.avg = 929.00, Cost.max = 929
Gap.min = 0.0000%, Gap.avg = 0.0000%, Gap.max = 0.0000%
Trials.min = 1000, Trials.avg = 1000.0, Trials.max = 1000
Time.min = 0.43 sec., Time.avg = 0.68 sec., Time.max = 0.95 sec.
Time.total = 6.92 sec.
请按任意键继续. . . 
